c --- [ banner ] -------------------------------------------------------------
c 
c CaDiCaL Radically Simplified CDCL SAT Solver
c Copyright (c) 2016-2021 A. Biere, M. Fleury, N. Froleyks
c 
c Version 1.5.2 9c38a080b32c28d805e8e6ca21849856b0cda605
c g++ (Ubuntu 7.5.0-3ubuntu1~18.04) 7.5.0 -Wall -Wextra -O3 -DNDEBUG
c Wed Feb 16 23:15:36 EST 2022 Linux fac-vanhoeve01 5.4.0-99-generic x86_64
c 
c --- [ limit ] --------------------------------------------------------------
c 
c setting time limit to 600 seconds real time (due to '-t 600')
c setting conflict limit to 1000000000 conflicts (due to '1000000000')
c 
c --- [ parsing input ] ------------------------------------------------------
c 
c reading DIMACS file from 'ddfwcnfs/DSJR500.5.col_122.cnf'
c opening file to read 'ddfwcnfs/DSJR500.5.col_122.cnf'
c found 'p cnf 61000 3886444' header
c parsed 3886444 clauses in 2.17 seconds process time
c closing file 'ddfwcnfs/DSJR500.5.col_122.cnf'
c after reading 60891054 bytes 58.1 MB
c 
c --- [ options ] ------------------------------------------------------------
c 
c all options are set to their default value
c 
c --- [ solving ] ------------------------------------------------------------
c 
c time measured in process time since initialization
c 
c  seconds   reductions  redundant   irredundant
c          MB    restarts       trail        variables
c           level   conflicts       glue          remaining
c 
c *  2.17 324  0 0   0    0    0  0% 0 3849352 45915 75%
c {  2.17 325  0 0   0    0    0  0% 0 3849352 45915 75%
c -  2.93 325 54 1  44  301  214 42% 31 3848260 45915 75%
c }  3.44 325 84 1 179 1000  754 49% 46 3848260 45915 75%
c [  3.44 325  0 1 179 1000  754  0% 0 3848260 45915 75%
c O  3.45 325 170 1 179 1002  756 54% 19 3848260 45915 75%
c -  5.41 414 36 2 179 1852 1191 34% 26 3848260 45915 75%
c ]  5.52 414 43 2 180 3001 2093 34% 32 3848260 45915 75%
c {  5.52 414 84 2 180 3001 2093 49% 46 3848260 45915 75%
c F  7.39 407 84 2 180 3003 2095  6% 46 3848260 45915 75%
c -  9.11 436 82 3 199 4179 2333 29% 42 3848260 45915 75%
c p 11.70 436 74 3 200 5002 2882 28% 42 3848260 45915 75%
c # 12.52 436 71 3 250 6005 3504 28% 42 3848260 45915 75%
c } 12.69 436 73 3 250 7001 4312 27% 40 3848260 45915 75%
c [ 12.69 436 43 3 250 7001 4312 46% 32 3848260 45915 75%
c - 14.12 436 43 4 251 7282 2765 41% 31 3848260 45915 75%
c I 14.39 436 45 4 252 10008 4767 25% 31 3848260 45915 75%
c - 16.11 436 1161 5 253 11159 3877 33% 35 3848260 45915 75%
c s 17.54 436 1009 5 254 12783 5148 34% 40 3848260 45915 75%
c e 22.92 480 1009 5 254 12783 1364 34% 40 1587248 25788 42%
c 
c  seconds     reductions   redundant    irredundant
c          MB      restarts        trail         variables
c            level     conflicts       glue           remaining
c 
c s 23.23 480 1009 5 254 12783 1353 34% 40 1587248 25788 42%
c ^ 23.58 480 1009 5 254 12783 1353 34% 40 1587248 25788 42%
c ] 24.97 400 814 5 255 15002 2920 44% 49 1587248 25788 42%
c { 24.97 400 73 5 255 15002 2920 48% 40 1587248 25788 42%
c p 25.93 400 73 5 255 15002 2989 48% 40 1587248 25788 42%
c B 26.19 400 78 5 255 15010 2997 48% 40 1587248 25788 42%
c - 27.00 401 82 6 456 15812 2786 45% 42 1587248 25788 42%
c - 28.48 401 88 7 949 20434 4552 40% 44 1587248 25788 42%
c W 29.18 401 89 7 980 21013 5048 39% 44 1587248 25788 42%
c - 30.55 401 202 8 1486 25716 5413 36% 44 1587248 25788 42%
c F 30.94 401 183 8 2014 28017 7114 34% 46 1587248 25788 42%
c p 32.11 401 166 8 2016 30002 9251 32% 43 1587248 25788 42%
c } 32.45 401 159 8 2016 31006 10034 31% 42 1587248 25788 42%
c [ 32.45 401 814 8 2016 31006 10034 44% 49 1587248 25788 42%
c - 33.10 401 764 9 2016 31657 6001 37% 48 1587248 25788 42%
c B 33.54 401 541 9 2019 36018 9392 25% 42 1587248 25788 42%
c s 33.75 401 547 9 2019 36559 9502 25% 43 1587248 25788 42%
c s 35.53 401 547 9 2019 36559 9364 25% 43 1587248 25788 42%
c ^ 35.79 401 547 9 2019 36559 9364 25% 43 1587248 25788 42%
c - 36.67 402 507 10 2020 38259 7795 26% 46 1587248 25788 42%
c 
c  seconds    reductions      redundant    irredundant
c          MB      restarts          trail         variables
c            level      conflicts        glue           remaining
c 
c W 38.33 402 394 10 2023 45020 12857 25% 55 1587248 25788 42%
c - 38.99 402 387 11 2023 45523 7825 25% 55 1587248 25788 42%
c 2 40.46 402 336 11 2024 50003 10789 25% 57 1587248 25788 42%
c p 40.69 402 336 11 2024 50003 12896 25% 57 1587248 25788 42%
c - 42.08 402 324 12 2024 53450 8123 25% 59 1587248 25788 42%
c O 42.31 402 314 12 2025 55021 9302 26% 59 1587248 25788 42%
c - 43.74 401 263 13 2030 62032 7154 27% 58 1587248 25788 42%
c ] 43.87 401 258 13 2031 63006 7902 27% 57 1587248 25788 42%
c { 43.87 401 159 13 2031 63006 7902 31% 42 1587248 25788 42%
c B 44.39 401 148 13 2413 66024 10190 31% 43 1587248 25788 42%
c - 45.73 401 129 14 3002 71274 8479 31% 43 1587248 25788 42%
c s 45.94 401 127 14 3229 72227 9177 31% 44 1587248 25788 42%
c e 47.62 401 127 14 3229 72227 9177 31% 44 1587250 25787 42%
c s 47.66 401 127 14 3229 72227 9175 31% 44 1587250 25787 42%
c p 49.64 401 120 14 3918 75003 14737 31% 45 1587250 25787 42%
c W 51.06 401 114 14 4649 78025 15790 30% 46 1587250 25787 42%
c - 52.14 402 152 15 4652 81176 8137 30% 45 1587250 25787 42%
c # 53.64 402 149 15 5152 91027 14003 31% 45 1587250 25787 42%
c - 54.31 402 148 16 5152 91739 9070 31% 45 1587250 25787 42%
c - 56.25 402 130 17 5299 102962 11372 30% 44 1587250 25787 42%
c 
c  seconds    reductions       redundant    irredundant
c          MB      restarts           trail         variables
c            level      conflicts         glue           remaining
c 
c p 57.50 402 126 17 5368 105003 14055 30% 44 1587250 25787 42%
c B 57.76 402 126 17 5374 105028 14074 30% 44 1587250 25787 42%
c - 59.94 402 117 18 6389 114845 11995 31% 46 1587250 25787 42%
c W 62.01 402 113 18 6901 120030 15923 31% 46 1587250 25787 42%
c } 63.05 402 110 18 6964 127007 21038 32% 46 1587250 25787 42%
c [ 63.05 402 258 18 6964 127007 21038 27% 57 1587250 25787 42%
c - 63.70 403 257 19 6964 127388 12756 27% 58 1587250 25787 42%
c B 65.00 403 232 19 6969 136034 19457 28% 62 1587250 25787 42%
c p 66.67 403 234 19 6971 140005 28015 28% 61 1587250 25787 42%
c - 67.59 404 233 20 6971 140591 14254 28% 61 1587250 25787 42%
c W 70.83 404 199 20 6973 153041 23951 30% 65 1587250 25787 42%
c - 71.65 404 196 21 6973 154455 15152 30% 65 1587250 25787 42%
c - 74.23 404 187 22 6975 168983 14468 32% 70 1587250 25787 42%
c I 74.55 404 185 22 6976 171044 15795 32% 71 1587250 25787 42%
c p 77.21 404 310 22 6980 180006 24738 32% 73 1587250 25787 42%
c - 78.81 406 296 23 6983 184167 16089 33% 71 1587250 25787 42%
c B 79.88 406 286 23 6987 190047 20575 34% 71 1587250 25787 42%
c - 82.45 407 269 24 6988 200012 16341 35% 73 1587250 25787 42%
c W 86.23 407 250 24 6995 210048 23990 36% 74 1587250 25787 42%
c - 87.85 408 249 25 6998 216516 18250 36% 73 1587250 25787 42%
c 
c  seconds    reductions       redundant    irredundant
c          MB      restarts           trail         variables
c            level      conflicts         glue           remaining
c 
c p 90.15 408 236 25 7002 225006 25967 35% 73 1587250 25787 42%
c O 91.32 408 228 25 7003 231049 30899 34% 74 1587250 25787 42%
c - 92.16 407 222 26 7003 233681 19525 34% 72 1587250 25787 42%
c - 94.52 402 186 27 7005 251507 18613 30% 64 1587250 25787 42%
c B 94.73 402 183 27 7005 253051 19778 29% 63 1587250 25787 42%
c ] 95.15 402 421 27 7005 255009 21425 31% 66 1587250 25787 42%
c { 95.15 402 110 27 7005 255009 21425 32% 46 1587250 25787 42%
c - 97.94 404 103 28 8202 269992 19010 33% 46 1587250 25787 42%
c p 99.54 404 99 28 8212 275006 30037 32% 46 1587250 25787 42%
c F 99.90 404 98 28 8212 276052 30738 32% 45 1587250 25787 42%
c - 101.55 402 92 29 8212 289138 20537 29% 42 1587250 25787 42%
c B 102.48 402 89 29 8212 300054 28919 27% 41 1587250 25787 42%
c - 104.43 403 88 30 9300 308944 20903 27% 42 1587250 25787 42%
c W 108.69 403 85 30 10265 325055 32282 27% 40 1587250 25787 42%
c - 109.81 403 89 31 10598 329412 20118 28% 40 1587250 25787 42%
c s 109.93 403 89 31 10598 329412 19902 28% 40 1587250 25787 42%
c w 110.97 403 89 31 10598 329412 19853 28% 40 1587250 25787 42%
c 2 112.23 403 89 31 10648 330008 20320 28% 40 1587250 25787 42%
c p 112.41 403 89 31 10648 330008 23995 28% 40 1587250 25787 42%
c - 116.90 406 84 32 12539 350540 22472 29% 42 1587250 25787 42%
c 
c  seconds    reductions        redundant    irredundant
c           MB      restarts           trail         variables
c            level       conflicts         glue           remaining
c 
c # 116.99 406 83 32 12539 351056 22900 29% 42 1587250 25787 42%
c - 119.72 404 79 33 12543 372326 23700 27% 40 1587250 25787 42%
c B 120.32 404 77 33 12547 378057 28198 27% 40 1587250 25787 42%
c p 123.49 404 77 33 14119 390017 37539 28% 40 1587250 25787 42%
c - 125.07 404 77 34 14243 394773 23752 28% 40 1587250 25787 42%
c W 129.55 404 79 34 14545 406059 31438 28% 40 1587250 25787 42%
c - 131.60 403 75 35 14772 417880 20727 29% 40 1587250 25787 42%
c F 133.54 403 70 35 15055 435060 29937 30% 40 1587250 25787 42%
c - 134.83 403 72 36 15055 441650 21184 29% 39 1587250 25787 42%
c p 137.87 403 70 36 16559 455020 38107 29% 39 1587250 25787 42%
c B 139.33 403 70 36 16829 465062 45095 30% 39 1587250 25787 42%
c - 140.19 404 70 37 17035 466078 22467 30% 39 1587250 25787 42%
c - 143.69 403 76 38 17389 491166 23503 28% 36 1587250 25787 42%
c W 147.64 403 79 38 17400 496063 27239 28% 36 1587250 25787 42%
c } 150.26 403 78 38 20697 511013 35562 29% 38 1587250 25787 42%
c [ 150.26 403 421 38 20697 511013 35562 31% 66 1587250 25787 42%
c - 151.62 405 396 39 20697 516914 23541 30% 65 1587250 25787 42%
c p 154.36 405 366 39 20697 525025 33948 29% 63 1587250 25787 42%
c W 159.98 405 397 39 20697 528064 36398 29% 63 1587250 25787 42%
c - 163.59 409 357 40 20700 543324 27921 28% 67 1587250 25787 42%
c 
c  seconds     reductions        redundant    irredundant
c           MB       restarts           trail         variables
c             level       conflicts         glue           remaining
c 
c I 167.16 409 307 40 20710 561066 40407 30% 67 1587250 25787 42%
c - 170.02 410 302 41 20712 570393 27632 30% 65 1587250 25787 42%
c B 175.14 410 268 41 20726 595072 46347 31% 64 1587250 25787 42%
c - 176.37 410 305 42 20726 598122 28967 31% 65 1587250 25787 42%
c p 178.28 410 305 42 20727 600027 31886 31% 65 1587250 25787 42%
c - 185.88 415 254 43 20731 626511 30254 30% 66 1587250 25787 42%
c W 191.84 415 249 43 20734 630073 32908 30% 67 1587250 25787 42%
c - 198.78 415 215 44 20743 655561 31869 29% 69 1587250 25787 42%
c s 198.90 415 215 44 20743 655561 31644 29% 69 1587250 25787 42%
c w 200.23 415 215 44 20743 655561 31621 29% 69 1587250 25787 42%
c O 202.77 415 202 44 20750 666076 38736 29% 69 1587250 25787 42%
c 2 207.26 415 183 44 20757 680027 49368 30% 67 1587250 25787 42%
c p 207.65 415 183 44 20757 680027 57806 30% 67 1587250 25787 42%
c - 209.98 408 177 45 20758 685269 31716 30% 66 1587250 25787 42%
c B 214.01 408 160 45 20759 703082 45594 32% 65 1587250 25787 42%
c - 217.16 410 158 46 20760 715639 31760 32% 69 1587250 25787 42%
c W 228.87 410 149 46 20761 741084 50097 33% 74 1587250 25787 42%
c - 231.19 411 146 47 20761 746668 31398 34% 75 1587250 25787 42%
c p 237.33 411 140 47 20761 765028 48102 34% 78 1587250 25787 42%
c - 242.70 361 134 48 20761 778358 32227 35% 77 1587250 25787 42%
c 
c  seconds     reductions        redundant    irredundant
c           MB       restarts           trail         variables
c             level       conflicts         glue           remaining
c 
c I 243.10 361 133 48 20761 780088 33599 35% 77 1587250 25787 42%
c - 251.16 415 605 49 20766 810709 35895 35% 82 1587250 25787 42%
c B 253.49 415 570 49 20771 820090 42968 35% 82 1587250 25787 42%
c - 257.61 361 497 50 20780 843718 35816 34% 79 1587250 25787 42%
c p 260.53 361 457 50 20786 855029 46022 33% 77 1587250 25787 42%
c W 266.80 361 438 50 20790 861093 50720 33% 76 1587250 25787 42%
c - 269.05 412 404 51 20792 877389 37209 31% 72 1587250 25787 42%
c O 272.46 412 375 51 20802 903095 56113 31% 68 1587250 25787 42%
c - 274.11 361 349 52 20806 911720 36142 30% 65 1587250 25787 42%
c B 279.15 361 271 52 20821 946097 61589 29% 63 1587250 25787 42%
c - 279.86 411 274 53 20822 946712 36038 29% 63 1587250 25787 42%
c p 281.47 411 274 53 20822 950031 47153 29% 62 1587250 25787 42%
c - 288.93 361 219 54 20824 982363 37317 28% 61 1587250 25787 42%
c W 298.26 361 208 54 20824 990100 43115 28% 61 1587250 25787 42%
c - 305.98 410 178 55 20833 1018673 40510 29% 62 1587250 25787 42%
c s 306.14 410 178 55 20833 1018673 40402 29% 62 1587250 25787 42%
c ] 308.93 410 211 55 20836 1023020 43749 30% 62 1587250 25787 42%
c { 308.93 410 78 55 20836 1023020 43749 29% 38 1587250 25787 42%
c # 311.62 410 78 55 23444 1035101 51463 29% 40 1587250 25787 42%
c p 314.65 410 78 55 23496 1050031 64902 27% 38 1587250 25787 42%
c 
c  seconds    reductions         redundant    irredundant
c           MB      restarts            trail         variables
c            level        conflicts         glue           remaining
c 
c - 316.31 361 78 56 23496 1055644 36199 27% 38 1587250 25787 42%
c B 321.08 361 77 56 25539 1081104 53663 27% 37 1587250 25787 42%
c - 324.28 407 75 57 28466 1093275 36844 28% 39 1587250 25787 42%
c W 338.10 407 69 57 36944 1128108 49679 31% 42 1587250 25787 42%
c - 339.33 361 68 58 37663 1131567 24516 31% 43 1587250 25787 42%
c p 344.20 361 64 58 41372 1155034 34553 32% 44 1587250 25787 42%
c - 347.54 403 62 59 43105 1170520 21837 33% 44 1587250 25787 42%
c F 348.29 403 62 59 43793 1176110 23950 33% 45 1587250 25787 42%
c - 353.12 361 70 60 43793 1210131 36366 30% 38 1587250 25787 42%
c B 355.18 361 73 60 43793 1225113 48171 28% 37 1587250 25787 42%
c - 361.09 406 72 61 46758 1250403 38203 29% 37 1587250 25787 42%
c p 364.95 406 68 61 46792 1265034 56551 29% 37 1587250 25787 42%
c W 376.88 406 66 61 46804 1275115 63429 29% 37 1587250 25787 42%
c - 380.24 361 62 62 46837 1291336 38723 29% 36 1587250 25787 42%
c # 386.99 361 54 62 46845 1326117 59419 29% 35 1587250 25787 42%
c - 389.03 406 55 63 47212 1332931 38994 29% 34 1587250 25787 42%
c - 398.04 361 55 64 56379 1375184 31492 28% 39 1587250 25787 42%
c B 398.59 361 55 64 57050 1378118 32961 28% 40 1587250 25787 42%
c p 400.48 361 55 64 57487 1380034 38831 28% 40 1587250 25787 42%
c - 409.30 408 59 65 62130 1418097 36497 30% 41 1587250 25787 42%
c 
c  seconds    reductions         redundant    irredundant
c           MB      restarts            trail         variables
c            level        conflicts         glue           remaining
c 
c W 422.86 408 61 65 62176 1431119 46889 31% 41 1587250 25787 42%
c - 429.49 361 61 66 65627 1461670 42478 31% 41 1587250 25787 42%
c s 429.72 361 61 66 65627 1461670 42218 31% 41 1587250 25787 42%
c F 435.23 361 59 66 69224 1485121 54280 30% 42 1587250 25787 42%
c p 438.21 361 64 66 69225 1500035 66865 28% 39 1587250 25787 42%
c - 440.02 406 63 67 69225 1505902 41715 27% 39 1587250 25787 42%
c B 445.85 406 59 67 69225 1540125 68852 24% 35 1587250 25787 42%
c - 449.30 361 60 68 71301 1550797 46062 25% 36 1587250 25787 42%
c W 468.36 361 72 68 77249 1596129 77439 28% 38 1587250 25787 42%
c - 469.08 409 72 69 77297 1596350 44351 28% 38 1587250 25787 42%
c p 475.19 409 70 69 83187 1625039 73619 27% 41 1587250 25787 42%
c - 479.86 361 69 70 87080 1642566 46346 27% 43 1587250 25787 42%
c # 482.14 361 69 70 89499 1653130 54322 26% 44 1587250 25787 42%
c - 486.55 410 64 71 90562 1689439 41743 25% 45 1587250 25787 42%
c B 489.00 410 61 71 91165 1711131 55427 25% 45 1587250 25787 42%
c - 493.58 361 63 72 91539 1736973 45648 27% 44 1587250 25787 42%
c p 497.44 361 63 72 91648 1755041 62164 28% 44 1587250 25787 42%
c W 510.08 361 62 72 91758 1770133 71318 28% 44 1587250 25787 42%
c - 512.83 408 60 73 91855 1785169 42744 28% 44 1587250 25787 42%
c F 520.12 408 58 73 97855 1830136 74513 31% 45 1587250 25787 42%
c 
c  seconds    reductions         redundant    irredundant
c           MB      restarts            trail         variables
c            level        conflicts         glue           remaining
c 
c - 521.09 361 59 74 97855 1834025 47212 31% 45 1587250 25787 42%
c - 526.47 407 50 75 97861 1883541 50015 25% 38 1587250 25787 42%
c p 528.29 407 50 75 97923 1890045 55740 24% 38 1587250 25787 42%
c B 528.66 407 50 75 97923 1891138 56459 24% 38 1587250 25787 42%
c - 535.92 361 50 76 101713 1933715 45913 27% 40 1587250 25787 42%
c W 549.84 361 49 76 102120 1953139 55755 29% 40 1587250 25787 42%
c - 555.78 406 47 77 102261 1984549 40540 31% 40 1587250 25787 42%
c s 555.92 406 47 77 102261 1984549 40429 31% 40 1587250 25787 42%
c w 556.95 406 47 77 102261 1984549 40392 31% 40 1587250 25787 42%
c # 562.32 406 46 77 102415 2016140 57563 32% 40 1587250 25787 42%
c p 565.33 406 50 77 103927 2030046 75692 32% 40 1587250 25787 42%
c - 566.81 361 55 78 104137 2036045 43070 32% 39 1587250 25787 42%
c } 568.18 361 57 78 104431 2047020 50132 32% 39 1587250 25787 42%
c [ 568.18 361 211 78 104431 2047020 50132 30% 62 1587250 25787 42%
c I 572.82 361 206 78 104446 2080143 74431 33% 58 1587250 25787 42%
c - 574.94 414 212 79 104449 2088200 49408 34% 59 1587250 25787 42%
c - 587.15 429 209 80 104465 2141016 51801 35% 78 1587250 25787 42%
c B 588.34 429 208 80 104466 2145146 54814 35% 79 1587250 25787 42%
c p 593.92 429 194 80 104480 2175051 80643 33% 79 1587250 25787 42%
c - 598.09 361 177 81 104481 2194491 53446 32% 79 1587250 25787 42%
c 
c  seconds     reductions          redundant    irredundant
c           MB       restarts             trail         variables
c             level         conflicts         glue           remaining
c 
c ] 599.95 361 169 81 104482 2204504 60703 31% 79 1587250 25787 42%
c ? 599.95 361 169 81 104482 2204504 60703 31% 79 1587250 25787 42%
c 
c --- [ result ] -------------------------------------------------------------
c 
c UNKNOWN
c 
c --- [ run-time profiling ] -------------------------------------------------
c 
c process time taken by individual solving procedures
c (percentage relative to process time for solving)
c 
c       536.85   89.81% search
c       244.33   40.87% unstable
c       189.27   31.66% stable
c       103.24   17.27% walk
c        60.94   10.19% simplify
c        16.17    2.70% ternary
c         7.92    1.32% vivify
c         7.60    1.27% probe
c         4.26    0.71% elim
c         2.47    0.41% subsume
c         2.17    0.36% parse
c         0.01    0.00% lucky
c   =================================
c       597.78   99.64% solve
c 
c last line shows process time for solving
c (percentage relative to total process time)
c 
c --- [ statistics ] ---------------------------------------------------------
c 
c chronological:            488134        22.14 %  of conflicts
c conflicts:               2204504      3687.80    per second
c decisions:               3790230      6340.48    per second
c eliminated:                20128        33.00 %  of all variables
c fixed:                     15085        24.73 %  of all variables
c learned:                 2165602        98.24 %  per conflict
c learned_lits:          376534212       100.00 %  learned literals
c minimized:                     0         0.00 %  learned literals
c shrunken:              178550985        47.42 %  learned literals
c minishrunken:           16515094         4.39 %  learned literals
c propagations:          767526978         1.28 M  per second
c reduced:                 1449112        65.73 %  per conflict
c rephased:                     65     33915.45    interval
c restarts:                 104482        21.10    interval
c stabilizing:                   6        38.08 %  of conflicts
c subsumed:                 651786         5.31 %  of all clauses
c strengthened:              10399         0.08 %  of all clauses
c vivified:                    275         0.00 %  of all clauses
c walked:                       20    110225.20    interval
c weakened:                2269825         2.01    average size
c 
c seconds are measured in process time for solving
c 
c --- [ resources ] ----------------------------------------------------------
c 
c total process time since initialization:       599.95    seconds
c total real time since initialization:          600.00    seconds
c maximum resident set size of process:          553.72    MB
c 
c --- [ shutting down ] ------------------------------------------------------
c 
c exit 0
